data/CVRPLIB/Vrp-Set-XML100/instances/XML100_3211_15.vrp
NAME : XML100_3211_15
COMMENT : Generated by Queiroga, Sadykov, Uchoa, and Vidal (2021)
TYPE : CVRP
DIMENSION : 101
EDGE_WEIGHT_TYPE : EUC_2D
CAPACITY : 4
NODE_COORD_SECTION
1    0    0   
2    901  874 
3    985  588 
4    688  435 
5    36   321 
6    980  611 
7    24   316 
8    824  516 
9    962  640 
10   892  813 
11   748  424 
12   781  342 
13   703  107 
14   799  454 
15   888  669 
16   740  467 
17   911  956 
18   803  857 
19   991  600 
20   955  517 
21   777  364 
22   944  682 
23   181  286 
24   61   386 
25   935  497 
26   903  630 
27   57   412 
28   29   327 
29   938  522 
30   915  777 
31   712  436 
32   803  392 
33   766  465 
34   947  524 
35   561  538 
36   764  435 
37   99   320 
38   714  537 
39   849  578 
40   949  549 
41   817  964 
42   878  907 
43   699  442 
44   902  874 
45   42   402 
46   188  307 
47   784  422 
48   770  306 
49   629  379 
50   942  558 
51   840  475 
52   971  999 
53   656  639 
54   70   377 
55   983  621 
56   152  232 
57   925  424 
58   963  513 
59   945  574 
60   996  654 
61   943  498 
62   827  503 
63   574  460 
64   697  421 
65   721  449 
66   773  211 
67   918  595 
68   870  888 
69   891  538 
70   90   366 
71   714  848 
72   981  733 
73   144  276 
74   979  727 
75   932  894 
76   34   318 
77   922  689 
78   770  425 
79   982  630 
80   940  428 
81   808  963 
82   991  529 
83   687  779 
84   874  801 
85   841  419 
86   840  605 
87   100  501 
88   863  867 
89   807  470 
90   987  643 
91   960  353 
92   999  827 
93   749  420 
94   88   368 
95   696  420 
96   982  452 
97   776  718 
98   206  184 
99   907  887 
100  84   220 
101  830  447 
DEMAND_SECTION
1    0   
2    1   
3    1   
4    1   
5    1   
6    1   
7    1   
8    1   
9    1   
10   1   
11   1   
12   1   
13   1   
14   1   
15   1   
16   1   
17   1   
18   1   
19   1   
20   1   
21   1   
22   1   
23   1   
24   1   
25   1   
26   1   
27   1   
28   1   
29   1   
30   1   
31   1   
32   1   
33   1   
34   1   
35   1   
36   1   
37   1   
38   1   
39   1   
40   1   
41   1   
42   1   
43   1   
44   1   
45   1   
46   1   
47   1   
48   1   
49   1   
50   1   
51   1   
52   1   
53   1   
54   1   
55   1   
56   1   
57   1   
58   1   
59   1   
60   1   
61   1   
62   1   
63   1   
64   1   
65   1   
66   1   
67   1   
68   1   
69   1   
70   1   
71   1   
72   1   
73   1   
74   1   
75   1   
76   1   
77   1   
78   1   
79   1   
80   1   
81   1   
82   1   
83   1   
84   1   
85   1   
86   1   
87   1   
88   1   
89   1   
90   1   
91   1   
92   1   
93   1   
94   1   
95   1   
96   1   
97   1   
98   1   
99   1   
100  1   
101  1   
DEPOT_SECTION
1
-1
EOF
