data/CVRPLIB/Vrp-Set-XML100/solutions/XML100_3211_15.sol
Route #1: 55 22 45 72
Route #2: 99 36 69 93
Route #3: 48 94 63 3
Route #4: 1 43 98 74
Route #5: 12 65 47 11
Route #6: 56 79 95 90
Route #7: 24 60 33 28
Route #8: 8 59 89 78
Route #9: 77 46 31 20
Route #10: 80 40 51 16
Route #11: 64 15 32 35
Route #12: 6 27 4 75
Route #13: 21 73 71 76
Route #14: 84 100 88 13
Route #15: 5 54 18 2
Route #16: 38 25 14 85
Route #17: 66 58 49 68
Route #18: 29 91 9 83
Route #19: 37 7 61 50
Route #20: 19 57 81 39
Route #21: 44 26 23 53
Route #22: 97 62 34 86
Route #23: 17 41 67 87
Route #24: 82 70 96 52
Route #25: 92 10 30 42
Cost 48786
